unsat
( c0
  c1
  c10
  c11
  c12
  c13
  c14
  c15
  c16
  c17
  c175
  c176
  c181
  c182
  c183
  c187
  c188
  c189
  c191
  c192
  c2
  c21
  c214
  c215
  c216
  c217
  c218
  c219
  c22
  c220
  c221
  c222
  c223
  c224
  c225
  c226
  c227
  c228
  c229
  c23
  c230
  c231
  c232
  c233
  c234
  c235
  c236
  c237
  c238
  c239
  c24
  c240
  c241
  c242
  c243
  c244
  c245
  c246
  c247
  c248
  c249
  c25
  c250
  c251
  c252
  c253
  c254
  c255
  c256
  c257
  c258
  c259
  c26
  c260
  c261
  c262
  c263
  c264
  c266
  c27
  c274
  c275
  c276
  c277
  c278
  c279
  c28
  c280
  c281
  c282
  c283
  c284
  c285
  c286
  c287
  c288
  c289
  c29
  c290
  c291
  c292
  c293
  c294
  c295
  c296
  c297
  c298
  c299
  c3
  c30
  c300
  c301
  c302
  c303
  c304
  c305
  c306
  c307
  c308
  c309
  c31
  c310
  c311
  c312
  c313
  c314
  c315
  c316
  c317
  c318
  c319
  c32
  c320
  c321
  c322
  c323
  c324
  c33
  c34
  c35
  c36
  c37
  c4
  c5
  c6
  c7
  c8
  c9 )
